2777272
49,19,60,23,32,47,24,30,56,3,38,7,64,67,34,55,46,26,66,11,41,25,29,42,12,1,48,2,61,50,36,16,21,6,43,33,59,4,65,20,13,27,45,58,15,17,9,35,51,62,68,8,53,39,37,28,44,52,22,31,14,57,10,18,63,54,40,5,49